solution status: optimal solution found
objective value:                     152131.123765302
d11(0,0)                                            1 	(obj:0)
d11(1,1)                                            1 	(obj:0)
d11(1,2)                                            1 	(obj:0)
d11(2,3)                                            1 	(obj:0)
d11(2,4)                                            1 	(obj:0)
d11(2,5)                                            1 	(obj:0)
d11(2,6)                                            1 	(obj:0)
d11(3,7)                                            1 	(obj:0)
d11(3,9)                                            1 	(obj:0)
d11(3,11)                                           1 	(obj:0)
d11(3,13)                                           1 	(obj:0)
d12(3,8)                                            1 	(obj:0)
d12(3,10)                                           1 	(obj:0)
d12(3,12)                                           1 	(obj:0)
d12(3,14)                                           1 	(obj:0)
d21(2,3)                                            1 	(obj:0)
d21(3,7)                                            1 	(obj:0)
d21(3,8)                                            1 	(obj:0)
d21(3,11)                                           1 	(obj:0)
y2(3,8)                              658.348300040868 	(obj:0)
y2(3,10)                             658.348300040868 	(obj:0)
y2(3,12)                             658.348300040868 	(obj:0)
y2(3,14)                             658.348300040868 	(obj:0)
STE(1,1)                             8484.75010111117 	(obj:0)
STE(0,0)                                        11025 	(obj:0)
STE(1,2)                                        10143 	(obj:0)
STE(2,3)                                         2205 	(obj:0)
STE(2,4)                             3863.24989888882 	(obj:0)
STE(2,5)                             3863.24989888883 	(obj:0)
STE(2,6)                             5521.49979777765 	(obj:0)
STE(3,7)                             546.750101111183 	(obj:0)
STE(3,8)                             1948.43088503882 	(obj:0)
STE(3,9)                                         2205 	(obj:0)
STE(3,10)                            3606.68078392764 	(obj:0)
STE(3,11)                                        2205 	(obj:0)
STE(3,12)                            3606.68078392766 	(obj:0)
STE(3,13)                            3863.24989888883 	(obj:0)
STE(3,14)                            5264.93068281648 	(obj:0)
AVE(2)                               3315.65537776224 	(obj:0)
y1(1,1)                              1492.42490899995 	(obj:0)
y1(2,3)                              4857.97509100005 	(obj:0)
y1(2,4)                              3365.55018200011 	(obj:0)
y1(2,5)                              4857.97509100005 	(obj:0)
y1(2,6)                              3365.55018200011 	(obj:0)
y1(3,7)                              698.624908999936 	(obj:0)
y1(3,9)                              698.624908999936 	(obj:0)
y1(3,11)                              698.62490899995 	(obj:0)
y1(3,13)                             698.624908999936 	(obj:0)
AVE(3)                               3315.65799770399 	(obj:0)
WG(1)                                3248.33172520918 	(obj:10)
WG(2)                                3315.65537776224 	(obj:10)
WG(3)                                3315.65799770399 	(obj:10)
BG(1)                                947.960773770401 	(obj:10)
BG(2)                                4314.87200080928 	(obj:10)
BG(3)                                70.6345012755257 	(obj:10)
AVE(1)                               3248.33172520918 	(obj:0)
